c Standarized MaxSat Instance
c{
c "sha1sum": "021a34507338851cd0f05cb2a7804030f9a0f96d",
c "nvars": 55,
c "ncls": 495,
c "nhards": 0,
c "nhard_len_stats":
c    { "min": 0, "max": 0, "ave": 0.00,
c      "stddev": 0.00 },
c "nsofts": 495,
c "nsoft_len_stats":
c    { "min": 3, "max": 6, "ave": 5.00,
c      "stddev": 1.41 },
c "nsoft_wts": 1,
c "soft_wt_stats":
c    { "min": 1, "max": 1, "ave": 1.00,
c      "stddev": 0.00 }
c}
c------------------------------------------------------------
p wcnf 55 495 496
1 1 2 11 0
1 1 3 12 0
1 2 3 20 0
1 11 12 20 0
1 1 4 13 0
1 2 4 21 0
1 11 13 21 0
1 3 4 28 0
1 12 13 28 0
1 20 21 28 0
1 1 5 14 0
1 2 5 22 0
1 11 14 22 0
1 3 5 29 0
1 12 14 29 0
1 20 22 29 0
1 4 5 35 0
1 13 14 35 0
1 21 22 35 0
1 28 29 35 0
1 1 6 15 0
1 2 6 23 0
1 11 15 23 0
1 3 6 30 0
1 12 15 30 0
1 20 23 30 0
1 4 6 36 0
1 13 15 36 0
1 21 23 36 0
1 28 30 36 0
1 5 6 41 0
1 14 15 41 0
1 22 23 41 0
1 29 30 41 0
1 35 36 41 0
1 1 7 16 0
1 2 7 24 0
1 11 16 24 0
1 3 7 31 0
1 12 16 31 0
1 20 24 31 0
1 4 7 37 0
1 13 16 37 0
1 21 24 37 0
1 28 31 37 0
1 5 7 42 0
1 14 16 42 0
1 22 24 42 0
1 29 31 42 0
1 35 37 42 0
1 6 7 46 0
1 15 16 46 0
1 23 24 46 0
1 30 31 46 0
1 36 37 46 0
1 41 42 46 0
1 1 8 17 0
1 2 8 25 0
1 11 17 25 0
1 3 8 32 0
1 12 17 32 0
1 20 25 32 0
1 4 8 38 0
1 13 17 38 0
1 21 25 38 0
1 28 32 38 0
1 5 8 43 0
1 14 17 43 0
1 22 25 43 0
1 29 32 43 0
1 35 38 43 0
1 6 8 47 0
1 15 17 47 0
1 23 25 47 0
1 30 32 47 0
1 36 38 47 0
1 41 43 47 0
1 7 8 50 0
1 16 17 50 0
1 24 25 50 0
1 31 32 50 0
1 37 38 50 0
1 42 43 50 0
1 46 47 50 0
1 1 9 18 0
1 2 9 26 0
1 11 18 26 0
1 3 9 33 0
1 12 18 33 0
1 20 26 33 0
1 4 9 39 0
1 13 18 39 0
1 21 26 39 0
1 28 33 39 0
1 5 9 44 0
1 14 18 44 0
1 22 26 44 0
1 29 33 44 0
1 35 39 44 0
1 6 9 48 0
1 15 18 48 0
1 23 26 48 0
1 30 33 48 0
1 36 39 48 0
1 41 44 48 0
1 7 9 51 0
1 16 18 51 0
1 24 26 51 0
1 31 33 51 0
1 37 39 51 0
1 42 44 51 0
1 46 48 51 0
1 8 9 53 0
1 17 18 53 0
1 25 26 53 0
1 32 33 53 0
1 38 39 53 0
1 43 44 53 0
1 47 48 53 0
1 50 51 53 0
1 1 10 19 0
1 2 10 27 0
1 11 19 27 0
1 3 10 34 0
1 12 19 34 0
1 20 27 34 0
1 4 10 40 0
1 13 19 40 0
1 21 27 40 0
1 28 34 40 0
1 5 10 45 0
1 14 19 45 0
1 22 27 45 0
1 29 34 45 0
1 35 40 45 0
1 6 10 49 0
1 15 19 49 0
1 23 27 49 0
1 30 34 49 0
1 36 40 49 0
1 41 45 49 0
1 7 10 52 0
1 16 19 52 0
1 24 27 52 0
1 31 34 52 0
1 37 40 52 0
1 42 45 52 0
1 46 49 52 0
1 8 10 54 0
1 17 19 54 0
1 25 27 54 0
1 32 34 54 0
1 38 40 54 0
1 43 45 54 0
1 47 49 54 0
1 50 52 54 0
1 9 10 55 0
1 18 19 55 0
1 26 27 55 0
1 33 34 55 0
1 39 40 55 0
1 44 45 55 0
1 48 49 55 0
1 51 52 55 0
1 53 54 55 0
1 -1 -2 -3 -11 -12 -20 0
1 -1 -2 -4 -11 -13 -21 0
1 -1 -3 -4 -12 -13 -28 0
1 -2 -3 -4 -20 -21 -28 0
1 -11 -12 -13 -20 -21 -28 0
1 -1 -2 -5 -11 -14 -22 0
1 -1 -3 -5 -12 -14 -29 0
1 -2 -3 -5 -20 -22 -29 0
1 -11 -12 -14 -20 -22 -29 0
1 -1 -4 -5 -13 -14 -35 0
1 -2 -4 -5 -21 -22 -35 0
1 -11 -13 -14 -21 -22 -35 0
1 -3 -4 -5 -28 -29 -35 0
1 -12 -13 -14 -28 -29 -35 0
1 -20 -21 -22 -28 -29 -35 0
1 -1 -2 -6 -11 -15 -23 0
1 -1 -3 -6 -12 -15 -30 0
1 -2 -3 -6 -20 -23 -30 0
1 -11 -12 -15 -20 -23 -30 0
1 -1 -4 -6 -13 -15 -36 0
1 -2 -4 -6 -21 -23 -36 0
1 -11 -13 -15 -21 -23 -36 0
1 -3 -4 -6 -28 -30 -36 0
1 -12 -13 -15 -28 -30 -36 0
1 -20 -21 -23 -28 -30 -36 0
1 -1 -5 -6 -14 -15 -41 0
1 -2 -5 -6 -22 -23 -41 0
1 -11 -14 -15 -22 -23 -41 0
1 -3 -5 -6 -29 -30 -41 0
1 -12 -14 -15 -29 -30 -41 0
1 -20 -22 -23 -29 -30 -41 0
1 -4 -5 -6 -35 -36 -41 0
1 -13 -14 -15 -35 -36 -41 0
1 -21 -22 -23 -35 -36 -41 0
1 -28 -29 -30 -35 -36 -41 0
1 -1 -2 -7 -11 -16 -24 0
1 -1 -3 -7 -12 -16 -31 0
1 -2 -3 -7 -20 -24 -31 0
1 -11 -12 -16 -20 -24 -31 0
1 -1 -4 -7 -13 -16 -37 0
1 -2 -4 -7 -21 -24 -37 0
1 -11 -13 -16 -21 -24 -37 0
1 -3 -4 -7 -28 -31 -37 0
1 -12 -13 -16 -28 -31 -37 0
1 -20 -21 -24 -28 -31 -37 0
1 -1 -5 -7 -14 -16 -42 0
1 -2 -5 -7 -22 -24 -42 0
1 -11 -14 -16 -22 -24 -42 0
1 -3 -5 -7 -29 -31 -42 0
1 -12 -14 -16 -29 -31 -42 0
1 -20 -22 -24 -29 -31 -42 0
1 -4 -5 -7 -35 -37 -42 0
1 -13 -14 -16 -35 -37 -42 0
1 -21 -22 -24 -35 -37 -42 0
1 -28 -29 -31 -35 -37 -42 0
1 -1 -6 -7 -15 -16 -46 0
1 -2 -6 -7 -23 -24 -46 0
1 -11 -15 -16 -23 -24 -46 0
1 -3 -6 -7 -30 -31 -46 0
1 -12 -15 -16 -30 -31 -46 0
1 -20 -23 -24 -30 -31 -46 0
1 -4 -6 -7 -36 -37 -46 0
1 -13 -15 -16 -36 -37 -46 0
1 -21 -23 -24 -36 -37 -46 0
1 -28 -30 -31 -36 -37 -46 0
1 -5 -6 -7 -41 -42 -46 0
1 -14 -15 -16 -41 -42 -46 0
1 -22 -23 -24 -41 -42 -46 0
1 -29 -30 -31 -41 -42 -46 0
1 -35 -36 -37 -41 -42 -46 0
1 -1 -2 -8 -11 -17 -25 0
1 -1 -3 -8 -12 -17 -32 0
1 -2 -3 -8 -20 -25 -32 0
1 -11 -12 -17 -20 -25 -32 0
1 -1 -4 -8 -13 -17 -38 0
1 -2 -4 -8 -21 -25 -38 0
1 -11 -13 -17 -21 -25 -38 0
1 -3 -4 -8 -28 -32 -38 0
1 -12 -13 -17 -28 -32 -38 0
1 -20 -21 -25 -28 -32 -38 0
1 -1 -5 -8 -14 -17 -43 0
1 -2 -5 -8 -22 -25 -43 0
1 -11 -14 -17 -22 -25 -43 0
1 -3 -5 -8 -29 -32 -43 0
1 -12 -14 -17 -29 -32 -43 0
1 -20 -22 -25 -29 -32 -43 0
1 -4 -5 -8 -35 -38 -43 0
1 -13 -14 -17 -35 -38 -43 0
1 -21 -22 -25 -35 -38 -43 0
1 -28 -29 -32 -35 -38 -43 0
1 -1 -6 -8 -15 -17 -47 0
1 -2 -6 -8 -23 -25 -47 0
1 -11 -15 -17 -23 -25 -47 0
1 -3 -6 -8 -30 -32 -47 0
1 -12 -15 -17 -30 -32 -47 0
1 -20 -23 -25 -30 -32 -47 0
1 -4 -6 -8 -36 -38 -47 0
1 -13 -15 -17 -36 -38 -47 0
1 -21 -23 -25 -36 -38 -47 0
1 -28 -30 -32 -36 -38 -47 0
1 -5 -6 -8 -41 -43 -47 0
1 -14 -15 -17 -41 -43 -47 0
1 -22 -23 -25 -41 -43 -47 0
1 -29 -30 -32 -41 -43 -47 0
1 -35 -36 -38 -41 -43 -47 0
1 -1 -7 -8 -16 -17 -50 0
1 -2 -7 -8 -24 -25 -50 0
1 -11 -16 -17 -24 -25 -50 0
1 -3 -7 -8 -31 -32 -50 0
1 -12 -16 -17 -31 -32 -50 0
1 -20 -24 -25 -31 -32 -50 0
1 -4 -7 -8 -37 -38 -50 0
1 -13 -16 -17 -37 -38 -50 0
1 -21 -24 -25 -37 -38 -50 0
1 -28 -31 -32 -37 -38 -50 0
1 -5 -7 -8 -42 -43 -50 0
1 -14 -16 -17 -42 -43 -50 0
1 -22 -24 -25 -42 -43 -50 0
1 -29 -31 -32 -42 -43 -50 0
1 -35 -37 -38 -42 -43 -50 0
1 -6 -7 -8 -46 -47 -50 0
1 -15 -16 -17 -46 -47 -50 0
1 -23 -24 -25 -46 -47 -50 0
1 -30 -31 -32 -46 -47 -50 0
1 -36 -37 -38 -46 -47 -50 0
1 -41 -42 -43 -46 -47 -50 0
1 -1 -2 -9 -11 -18 -26 0
1 -1 -3 -9 -12 -18 -33 0
1 -2 -3 -9 -20 -26 -33 0
1 -11 -12 -18 -20 -26 -33 0
1 -1 -4 -9 -13 -18 -39 0
1 -2 -4 -9 -21 -26 -39 0
1 -11 -13 -18 -21 -26 -39 0
1 -3 -4 -9 -28 -33 -39 0
1 -12 -13 -18 -28 -33 -39 0
1 -20 -21 -26 -28 -33 -39 0
1 -1 -5 -9 -14 -18 -44 0
1 -2 -5 -9 -22 -26 -44 0
1 -11 -14 -18 -22 -26 -44 0
1 -3 -5 -9 -29 -33 -44 0
1 -12 -14 -18 -29 -33 -44 0
1 -20 -22 -26 -29 -33 -44 0
1 -4 -5 -9 -35 -39 -44 0
1 -13 -14 -18 -35 -39 -44 0
1 -21 -22 -26 -35 -39 -44 0
1 -28 -29 -33 -35 -39 -44 0
1 -1 -6 -9 -15 -18 -48 0
1 -2 -6 -9 -23 -26 -48 0
1 -11 -15 -18 -23 -26 -48 0
1 -3 -6 -9 -30 -33 -48 0
1 -12 -15 -18 -30 -33 -48 0
1 -20 -23 -26 -30 -33 -48 0
1 -4 -6 -9 -36 -39 -48 0
1 -13 -15 -18 -36 -39 -48 0
1 -21 -23 -26 -36 -39 -48 0
1 -28 -30 -33 -36 -39 -48 0
1 -5 -6 -9 -41 -44 -48 0
1 -14 -15 -18 -41 -44 -48 0
1 -22 -23 -26 -41 -44 -48 0
1 -29 -30 -33 -41 -44 -48 0
1 -35 -36 -39 -41 -44 -48 0
1 -1 -7 -9 -16 -18 -51 0
1 -2 -7 -9 -24 -26 -51 0
1 -11 -16 -18 -24 -26 -51 0
1 -3 -7 -9 -31 -33 -51 0
1 -12 -16 -18 -31 -33 -51 0
1 -20 -24 -26 -31 -33 -51 0
1 -4 -7 -9 -37 -39 -51 0
1 -13 -16 -18 -37 -39 -51 0
1 -21 -24 -26 -37 -39 -51 0
1 -28 -31 -33 -37 -39 -51 0
1 -5 -7 -9 -42 -44 -51 0
1 -14 -16 -18 -42 -44 -51 0
1 -22 -24 -26 -42 -44 -51 0
1 -29 -31 -33 -42 -44 -51 0
1 -35 -37 -39 -42 -44 -51 0
1 -6 -7 -9 -46 -48 -51 0
1 -15 -16 -18 -46 -48 -51 0
1 -23 -24 -26 -46 -48 -51 0
1 -30 -31 -33 -46 -48 -51 0
1 -36 -37 -39 -46 -48 -51 0
1 -41 -42 -44 -46 -48 -51 0
1 -1 -8 -9 -17 -18 -53 0
1 -2 -8 -9 -25 -26 -53 0
1 -11 -17 -18 -25 -26 -53 0
1 -3 -8 -9 -32 -33 -53 0
1 -12 -17 -18 -32 -33 -53 0
1 -20 -25 -26 -32 -33 -53 0
1 -4 -8 -9 -38 -39 -53 0
1 -13 -17 -18 -38 -39 -53 0
1 -21 -25 -26 -38 -39 -53 0
1 -28 -32 -33 -38 -39 -53 0
1 -5 -8 -9 -43 -44 -53 0
1 -14 -17 -18 -43 -44 -53 0
1 -22 -25 -26 -43 -44 -53 0
1 -29 -32 -33 -43 -44 -53 0
1 -35 -38 -39 -43 -44 -53 0
1 -6 -8 -9 -47 -48 -53 0
1 -15 -17 -18 -47 -48 -53 0
1 -23 -25 -26 -47 -48 -53 0
1 -30 -32 -33 -47 -48 -53 0
1 -36 -38 -39 -47 -48 -53 0
1 -41 -43 -44 -47 -48 -53 0
1 -7 -8 -9 -50 -51 -53 0
1 -16 -17 -18 -50 -51 -53 0
1 -24 -25 -26 -50 -51 -53 0
1 -31 -32 -33 -50 -51 -53 0
1 -37 -38 -39 -50 -51 -53 0
1 -42 -43 -44 -50 -51 -53 0
1 -46 -47 -48 -50 -51 -53 0
1 -1 -2 -10 -11 -19 -27 0
1 -1 -3 -10 -12 -19 -34 0
1 -2 -3 -10 -20 -27 -34 0
1 -11 -12 -19 -20 -27 -34 0
1 -1 -4 -10 -13 -19 -40 0
1 -2 -4 -10 -21 -27 -40 0
1 -11 -13 -19 -21 -27 -40 0
1 -3 -4 -10 -28 -34 -40 0
1 -12 -13 -19 -28 -34 -40 0
1 -20 -21 -27 -28 -34 -40 0
1 -1 -5 -10 -14 -19 -45 0
1 -2 -5 -10 -22 -27 -45 0
1 -11 -14 -19 -22 -27 -45 0
1 -3 -5 -10 -29 -34 -45 0
1 -12 -14 -19 -29 -34 -45 0
1 -20 -22 -27 -29 -34 -45 0
1 -4 -5 -10 -35 -40 -45 0
1 -13 -14 -19 -35 -40 -45 0
1 -21 -22 -27 -35 -40 -45 0
1 -28 -29 -34 -35 -40 -45 0
1 -1 -6 -10 -15 -19 -49 0
1 -2 -6 -10 -23 -27 -49 0
1 -11 -15 -19 -23 -27 -49 0
1 -3 -6 -10 -30 -34 -49 0
1 -12 -15 -19 -30 -34 -49 0
1 -20 -23 -27 -30 -34 -49 0
1 -4 -6 -10 -36 -40 -49 0
1 -13 -15 -19 -36 -40 -49 0
1 -21 -23 -27 -36 -40 -49 0
1 -28 -30 -34 -36 -40 -49 0
1 -5 -6 -10 -41 -45 -49 0
1 -14 -15 -19 -41 -45 -49 0
1 -22 -23 -27 -41 -45 -49 0
1 -29 -30 -34 -41 -45 -49 0
1 -35 -36 -40 -41 -45 -49 0
1 -1 -7 -10 -16 -19 -52 0
1 -2 -7 -10 -24 -27 -52 0
1 -11 -16 -19 -24 -27 -52 0
1 -3 -7 -10 -31 -34 -52 0
1 -12 -16 -19 -31 -34 -52 0
1 -20 -24 -27 -31 -34 -52 0
1 -4 -7 -10 -37 -40 -52 0
1 -13 -16 -19 -37 -40 -52 0
1 -21 -24 -27 -37 -40 -52 0
1 -28 -31 -34 -37 -40 -52 0
1 -5 -7 -10 -42 -45 -52 0
1 -14 -16 -19 -42 -45 -52 0
1 -22 -24 -27 -42 -45 -52 0
1 -29 -31 -34 -42 -45 -52 0
1 -35 -37 -40 -42 -45 -52 0
1 -6 -7 -10 -46 -49 -52 0
1 -15 -16 -19 -46 -49 -52 0
1 -23 -24 -27 -46 -49 -52 0
1 -30 -31 -34 -46 -49 -52 0
1 -36 -37 -40 -46 -49 -52 0
1 -41 -42 -45 -46 -49 -52 0
1 -1 -8 -10 -17 -19 -54 0
1 -2 -8 -10 -25 -27 -54 0
1 -11 -17 -19 -25 -27 -54 0
1 -3 -8 -10 -32 -34 -54 0
1 -12 -17 -19 -32 -34 -54 0
1 -20 -25 -27 -32 -34 -54 0
1 -4 -8 -10 -38 -40 -54 0
1 -13 -17 -19 -38 -40 -54 0
1 -21 -25 -27 -38 -40 -54 0
1 -28 -32 -34 -38 -40 -54 0
1 -5 -8 -10 -43 -45 -54 0
1 -14 -17 -19 -43 -45 -54 0
1 -22 -25 -27 -43 -45 -54 0
1 -29 -32 -34 -43 -45 -54 0
1 -35 -38 -40 -43 -45 -54 0
1 -6 -8 -10 -47 -49 -54 0
1 -15 -17 -19 -47 -49 -54 0
1 -23 -25 -27 -47 -49 -54 0
1 -30 -32 -34 -47 -49 -54 0
1 -36 -38 -40 -47 -49 -54 0
1 -41 -43 -45 -47 -49 -54 0
1 -7 -8 -10 -50 -52 -54 0
1 -16 -17 -19 -50 -52 -54 0
1 -24 -25 -27 -50 -52 -54 0
1 -31 -32 -34 -50 -52 -54 0
1 -37 -38 -40 -50 -52 -54 0
1 -42 -43 -45 -50 -52 -54 0
1 -46 -47 -49 -50 -52 -54 0
1 -1 -9 -10 -18 -19 -55 0
1 -2 -9 -10 -26 -27 -55 0
1 -11 -18 -19 -26 -27 -55 0
1 -3 -9 -10 -33 -34 -55 0
1 -12 -18 -19 -33 -34 -55 0
1 -20 -26 -27 -33 -34 -55 0
1 -4 -9 -10 -39 -40 -55 0
1 -13 -18 -19 -39 -40 -55 0
1 -21 -26 -27 -39 -40 -55 0
1 -28 -33 -34 -39 -40 -55 0
1 -5 -9 -10 -44 -45 -55 0
1 -14 -18 -19 -44 -45 -55 0
1 -22 -26 -27 -44 -45 -55 0
1 -29 -33 -34 -44 -45 -55 0
1 -35 -39 -40 -44 -45 -55 0
1 -6 -9 -10 -48 -49 -55 0
1 -15 -18 -19 -48 -49 -55 0
1 -23 -26 -27 -48 -49 -55 0
1 -30 -33 -34 -48 -49 -55 0
1 -36 -39 -40 -48 -49 -55 0
1 -41 -44 -45 -48 -49 -55 0
1 -7 -9 -10 -51 -52 -55 0
1 -16 -18 -19 -51 -52 -55 0
1 -24 -26 -27 -51 -52 -55 0
1 -31 -33 -34 -51 -52 -55 0
1 -37 -39 -40 -51 -52 -55 0
1 -42 -44 -45 -51 -52 -55 0
1 -46 -48 -49 -51 -52 -55 0
1 -8 -9 -10 -53 -54 -55 0
1 -17 -18 -19 -53 -54 -55 0
1 -25 -26 -27 -53 -54 -55 0
1 -32 -33 -34 -53 -54 -55 0
1 -38 -39 -40 -53 -54 -55 0
1 -43 -44 -45 -53 -54 -55 0
1 -47 -48 -49 -53 -54 -55 0
1 -50 -51 -52 -53 -54 -55 0
